p edge 160 159 70
e 1 150
e 1 145
e 1 45
e 2 5
e 3 61
e 3 12
e 3 158
e 4 22
e 4 46
e 4 39
e 5 22
e 6 84
e 7 22
e 8 90
e 8 58
e 8 103
e 8 32
e 9 40
e 9 101
e 9 110
e 9 32
e 9 60
e 10 57
e 10 75
e 10 26
e 11 130
e 11 156
e 11 83
e 12 73
e 13 70
e 13 111
e 14 141
e 15 83
e 16 124
e 17 65
e 17 32
e 18 134
e 18 107
e 19 100
e 19 50
e 20 125
e 20 153
e 20 46
e 21 119
e 21 32
e 23 33
e 23 71
e 23 108
e 23 85
e 24 74
e 25 123
e 26 99
e 26 42
e 26 38
e 27 106
e 27 117
e 27 121
e 27 98
e 28 109
e 28 74
e 28 42
e 29 63
e 29 140
e 30 34
e 31 116
e 34 154
e 34 160
e 35 93
e 35 41
e 36 94
e 37 113
e 37 74
e 38 121
e 39 58
e 40 67
e 41 118
e 43 45
e 43 139
e 43 121
e 44 86
e 44 103
e 46 151
e 47 148
e 47 82
e 48 49
e 49 66
e 49 59
e 49 68
e 50 111
e 50 91
e 51 84
e 52 138
e 52 63
e 53 96
e 54 109
e 55 63
e 56 118
e 56 84
e 57 122
e 57 158
e 58 129
e 59 126
e 60 102
e 60 143
e 62 156
e 64 119
e 65 88
e 67 94
e 68 160
e 69 146
e 69 153
e 70 82
e 72 144
e 75 85
e 76 86
e 77 80
e 77 157
e 78 91
e 79 120
e 81 129
e 83 95
e 84 98
e 85 159
e 86 114
e 87 96
e 89 136
e 89 96
e 91 128
e 91 139
e 92 141
e 92 121
e 95 145
e 96 115
e 96 156
e 97 148
e 98 144
e 98 126
e 103 104
e 104 107
e 105 112
e 107 120
e 112 121
e 114 155
e 116 147
e 123 139
e 124 135
e 124 158
e 125 133
e 126 132
e 127 134
e 128 143
e 130 131
e 133 142
e 135 147
e 137 140
e 137 142
e 143 149
e 144 152
e 149 157
